27221
48,66,77,140,317,455,463,490,599,641,661,965,1050,1143,1229,1361,1384,1706,1737,1796,1858,1888,2206,2247,2465,2488,2532,2581,2620,2744,3272,3274,3382,3584,3661,3675,3733,3827,3875,3914,3945,4020,4088,4092,4196,4233,4343,4423,4437,4438,4827,4855,4885
